####################################################################### 
# 
# This file contains crystal structure data downloaded from the 
# Cambridge Structural Database (CSD) hosted by the Cambridge 
# Crystallographic Data Centre (CCDC).
# 
# Full information about CCDC data access policies and citation 
# guidelines are available at http://www.ccdc.cam.ac.uk/access/V1 
# 
# Audit and citation data items may have been added by the CCDC. 
# Please retain this information to preserve the provenance of 
# this file and to allow appropriate attribution of the data. 
# 
#######################################################################

data_nwc5
_audit_block_doi                 10.5517/cc3ykbx
_database_code_depnum_ccdc_archive 'CCDC 117779'
loop_
_citation_id
_citation_doi
_citation_year
1 10.1016/S0040-4020(98)83040-8 1998
_audit_update_record             
;
1999-04-05 deposited with the CCDC.	2022-01-07 downloaded from the CCDC.
;

_audit_creation_method           SHELXL
_chemical_name_systematic        
;
Epsilon polymorph of 2,4,6,8,10,12-Hexanitro-
2,4,6,8,10,12-hexaazatetracyclo[5.5.0.0(5,9).0(3,11)]dodecane
;
_chemical_name_common            epsilon-Hexanitrohexaazaisowurtzitane,
_chemical_formula_moiety         ?
_chemical_formula_structural     ?
_chemical_formula_analytical     ?
_chemical_formula_sum            'C6 H6 N12 O12'
_chemical_formula_weight         438.23
_chemical_melting_point          260C(dec)
_chemical_compound_source        synthesis

loop_
_atom_type_symbol
_atom_type_description
_atom_type_scat_dispersion_real
_atom_type_scat_dispersion_imag
_atom_type_scat_source
C C 0.0033 0.0016 'International Tables Vol C Tables 4.2.6.8 and 6.1.1.4'
H H 0.0000 0.0000 'International Tables Vol C Tables 4.2.6.8 and 6.1.1.4'
N N 0.0061 0.0033 'International Tables Vol C Tables 4.2.6.8 and 6.1.1.4'
O O 0.0106 0.0060 'International Tables Vol C Tables 4.2.6.8 and 6.1.1.4'

_symmetry_cell_setting           Monoclinic
_symmetry_space_group_name_H-M   P2(1)/n

loop_
_symmetry_equiv_pos_as_xyz
'x, y, z'
'-x+1/2, y+1/2, -z+1/2'
'-x, -y, -z'
'x-1/2, -y-1/2, z-1/2'

_cell_length_a                   8.852(2)
_cell_length_b                   12.556(3)
_cell_length_c                   13.386(3)
_cell_angle_alpha                90.00
_cell_angle_beta                 106.82(2)
_cell_angle_gamma                90.00
_cell_volume                     1424.1(5)
_cell_formula_units_Z            4
_cell_measurement_temperature    293(2)
_cell_measurement_reflns_used    27
_cell_measurement_theta_min      12.50
_cell_measurement_theta_max      16.50

_exptl_crystal_description       prism
_exptl_crystal_colour            clear_colorless
_exptl_crystal_size_max          0.42
_exptl_crystal_size_mid          0.32
_exptl_crystal_size_min          0.14
_exptl_crystal_density_meas      ?
_exptl_crystal_density_diffrn    2.044
_exptl_crystal_density_method    ?
_exptl_crystal_F_000             888
_exptl_absorpt_coefficient_mu    0.196
_exptl_absorpt_correction_type   none
_exptl_absorpt_correction_T_min  ?
_exptl_absorpt_correction_T_max  ?

_exptl_special_details           
;
?
;

_diffrn_ambient_temperature      293(2)
_diffrn_radiation_wavelength     0.71073
_diffrn_radiation_type           MoK\a
_diffrn_radiation_source         'fine-focus sealed tube'
_diffrn_radiation_monochromator  graphite
_diffrn_measurement_device       'Siemens P4'
_diffrn_measurement_method       '2\q/\w scans'
_diffrn_standards_number         3
_diffrn_standards_interval_count 97
_diffrn_standards_interval_time  ?
_diffrn_standards_decay_%        0.5
_diffrn_reflns_number            3760
_diffrn_reflns_av_R_equivalents  0.0306
_diffrn_reflns_av_sigmaI/netI    0.0245
_diffrn_reflns_limit_h_min       -10
_diffrn_reflns_limit_h_max       10
_diffrn_reflns_limit_k_min       0
_diffrn_reflns_limit_k_max       14
_diffrn_reflns_limit_l_min       -15
_diffrn_reflns_limit_l_max       15
_diffrn_reflns_theta_min         2.27
_diffrn_reflns_theta_max         25.05
_reflns_number_total             2514
_reflns_number_observed          2075
_reflns_observed_criterion       >2sigma(I)

_computing_data_collection       'Siemens XSCANS'
_computing_cell_refinement       'Siemens XSCANS'
_computing_data_reduction        'Siemens SHELXTL'
_computing_structure_solution    'SHELXS-86 (Sheldrick, 1990)'
_computing_structure_refinement  'SHELXL-93 (Sheldrick, 1993)'
_computing_molecular_graphics    'Siemens SHELXTL'
_computing_publication_material  'Siemens SHELXTL'

_refine_special_details          
;
Refinement on F^2^ for ALL reflections except for 1 with very negative F^2^
or flagged by the user for potential systematic errors.  Weighted R-factors
wR and all goodnesses of fit S are based on F^2^, conventional R-factors R
are based on F, with F set to zero for negative F^2^. The observed criterion
of F^2^ > 2sigma(F^2^) is used only for calculating _R_factor_obs etc. and is
not relevant to the choice of reflections for refinement.  R-factors based
on F^2^ are statistically about twice as large as those based on F, and R-
factors based on ALL data will be even larger.
;

_refine_ls_structure_factor_coef Fsqd
_refine_ls_matrix_type           full
_refine_ls_weighting_scheme      
'calc w=1/[\s^2^(Fo^2^)+(0.0485P)^2^+0.7598P] where P=(Fo^2^+2Fc^2^)/3'
_atom_sites_solution_primary     direct
_atom_sites_solution_secondary   na
_atom_sites_solution_hydrogens   difmap
_refine_ls_hydrogen_treatment    riding,
_refine_ls_extinction_method     SHELXL
_refine_ls_extinction_coef       0.0049(11)
_refine_ls_extinction_expression Fc^*^=kFc[1+0.001xFc^2^\l^3^/sin(2\q)]^-1/4^
_refine_ls_number_reflns         2513
_refine_ls_number_parameters     290
_refine_ls_number_restraints     0
_refine_ls_R_factor_all          0.0465
_refine_ls_R_factor_obs          0.0363
_refine_ls_wR_factor_all         0.1009
_refine_ls_wR_factor_obs         0.0918
_refine_ls_goodness_of_fit_all   1.057
_refine_ls_goodness_of_fit_obs   1.105
_refine_ls_restrained_S_all      1.089
_refine_ls_restrained_S_obs      1.105
_refine_ls_shift/esd_max         -0.005
_refine_ls_shift/esd_mean        0.001

loop_
_atom_site_label
_atom_site_type_symbol
_atom_site_fract_x
_atom_site_fract_y
_atom_site_fract_z
_atom_site_U_iso_or_equiv
_atom_site_thermal_displace_type
_atom_site_occupancy
_atom_site_calc_flag
_atom_site_refinement_flags
_atom_site_disorder_group
C1 C 0.4374(2) 0.6373(2) 0.8657(2) 0.0231(4) Uani 1 d . .
H1 H 0.4198(27) 0.6418(19) 0.9313(18) 0.028 Uiso 1 d . .
N2 N 0.3029(2) 0.59733(14) 0.78357(13) 0.0233(4) Uani 1 d . .
N2A N 0.1518(2) 0.6059(2) 0.8017(2) 0.0335(5) Uani 1 d . .
O2A O 0.0392(2) 0.61538(14) 0.7257(2) 0.0439(5) Uani 1 d . .
O2B O 0.1519(2) 0.5967(2) 0.8917(2) 0.0547(5) Uani 1 d . .
C3 C 0.3167(2) 0.6365(2) 0.6834(2) 0.0238(4) Uani 1 d . .
H3 H 0.2140(28) 0.6533(19) 0.6331(18) 0.029 Uiso 1 d . .
N4 N 0.3887(2) 0.55455(14) 0.63653(13) 0.0259(4) Uani 1 d . .
N4A N 0.3121(2) 0.5124(2) 0.53944(14) 0.0315(4) Uani 1 d . .
O4A O 0.3749(2) 0.43742(14) 0.51000(12) 0.0390(4) Uani 1 d . .
O4B O 0.1906(2) 0.5549(2) 0.49201(14) 0.0571(6) Uani 1 d . .
C5 C 0.5451(2) 0.5196(2) 0.6926(2) 0.0238(4) Uani 1 d . .
H5 H 0.5822(27) 0.4693(19) 0.6532(18) 0.029 Uiso 1 d . .
N6 N 0.5514(2) 0.47789(13) 0.79625(13) 0.0230(4) Uani 1 d . .
N6A N 0.4514(2) 0.39691(14) 0.80497(14) 0.0262(4) Uani 1 d . .
O6A O 0.4040(2) 0.33973(12) 0.72922(13) 0.0346(4) Uani 1 d . .
O6B O 0.4231(2) 0.38818(13) 0.88858(12) 0.0366(4) Uani 1 d . .
C7 C 0.5851(2) 0.5622(2) 0.8735(2) 0.0232(4) Uani 1 d . .
H7 H 0.6276(27) 0.5353(19) 0.9411(19) 0.028 Uiso 1 d . .
N8 N 0.7064(2) 0.61363(14) 0.83683(13) 0.0241(4) Uani 1 d . .
N8A N 0.7860(2) 0.6979(2) 0.89494(14) 0.0302(4) Uani 1 d . .
O8A O 0.8485(2) 0.76092(14) 0.85045(14) 0.0427(4) Uani 1 d . .
O8B O 0.7890(2) 0.6997(2) 0.98628(12) 0.0454(5) Uani 1 d . .
C9 C 0.6579(2) 0.6189(2) 0.7215(2) 0.0230(4) Uani 1 d . .
H9 H 0.7451(29) 0.6161(18) 0.6957(18) 0.028 Uiso 1 d . .
N10 N 0.5677(2) 0.71259(14) 0.67918(13) 0.0250(4) Uani 1 d . .
N10A N 0.6460(2) 0.7983(2) 0.64663(15) 0.0331(5) Uani 1 d . .
O10A O 0.5887(2) 0.88556(14) 0.6474(2) 0.0573(6) Uani 1 d . .
O10B O 0.7596(2) 0.77526(14) 0.61841(14) 0.0424(4) Uani 1 d . .
C11 C 0.4314(2) 0.7349(2) 0.7138(2) 0.0240(4) Uani 1 d . .
H11 H 0.3845(28) 0.7978(20) 0.6840(18) 0.029 Uiso 1 d . .
N12 N 0.4718(2) 0.74090(13) 0.82785(13) 0.0229(4) Uani 1 d . .
N12A N 0.4188(2) 0.83113(15) 0.8723(2) 0.0324(4) Uani 1 d . .
O12A O 0.4029(2) 0.91205(13) 0.82158(15) 0.0440(5) Uani 1 d . .
O12B O 0.4017(2) 0.81931(15) 0.95792(15) 0.0498(5) Uani 1 d . .

loop_
_atom_site_aniso_label
_atom_site_aniso_U_11
_atom_site_aniso_U_22
_atom_site_aniso_U_33
_atom_site_aniso_U_23
_atom_site_aniso_U_13
_atom_site_aniso_U_12
C1 0.0259(11) 0.0236(10) 0.0204(10) 0.0001(8) 0.0078(9) -0.0008(8)
N2 0.0190(8) 0.0263(9) 0.0257(9) -0.0012(7) 0.0081(7) -0.0006(7)
N2A 0.0281(10) 0.0294(10) 0.0472(13) -0.0057(9) 0.0177(10) -0.0010(8)
O2A 0.0231(9) 0.0428(10) 0.0639(12) -0.0065(9) 0.0094(9) 0.0023(8)
O2B 0.0466(11) 0.0769(15) 0.0518(12) -0.0054(10) 0.0319(9) -0.0087(10)
C3 0.0200(10) 0.0254(10) 0.0240(10) 0.0010(8) 0.0035(9) 0.0011(8)
N4 0.0237(9) 0.0312(10) 0.0194(8) -0.0054(7) 0.0010(7) -0.0004(8)
N4A 0.0341(11) 0.0366(11) 0.0207(9) -0.0006(8) 0.0031(8) -0.0117(9)
O4A 0.0452(10) 0.0444(10) 0.0304(9) -0.0159(7) 0.0159(8) -0.0104(8)
O4B 0.0525(12) 0.0623(13) 0.0376(10) -0.0034(9) -0.0170(9) 0.0050(10)
C5 0.0249(10) 0.0262(10) 0.0210(10) -0.0029(8) 0.0080(8) 0.0018(9)
N6 0.0252(9) 0.0213(8) 0.0220(8) 0.0008(7) 0.0059(7) 0.0009(7)
N6A 0.0247(9) 0.0225(9) 0.0308(10) 0.0033(8) 0.0069(8) 0.0034(7)
O6A 0.0352(9) 0.0265(8) 0.0420(9) -0.0075(7) 0.0110(7) -0.0044(7)
O6B 0.0431(10) 0.0380(9) 0.0322(9) 0.0074(7) 0.0162(7) -0.0020(8)
C7 0.0259(11) 0.0243(10) 0.0176(10) 0.0013(8) 0.0032(8) 0.0018(9)
N8 0.0206(8) 0.0276(9) 0.0222(9) -0.0017(7) 0.0032(7) -0.0021(7)
N8A 0.0238(9) 0.0376(11) 0.0261(10) -0.0040(8) 0.0025(8) -0.0039(8)
O8A 0.0394(10) 0.0469(10) 0.0433(10) -0.0078(8) 0.0144(8) -0.0189(8)
O8B 0.0519(11) 0.0574(11) 0.0226(9) -0.0085(8) 0.0039(8) -0.0134(9)
C9 0.0205(10) 0.0280(11) 0.0204(10) -0.0018(8) 0.0060(8) -0.0011(9)
N10 0.0238(9) 0.0263(9) 0.0255(9) 0.0055(7) 0.0083(7) -0.0028(7)
N10A 0.0337(11) 0.0321(11) 0.0334(10) 0.0031(8) 0.0098(8) -0.0113(9)
O10A 0.0555(12) 0.0299(10) 0.093(2) 0.0139(10) 0.0322(12) -0.0026(9)
O10B 0.0425(10) 0.0485(10) 0.0447(10) -0.0006(8) 0.0258(8) -0.0130(8)
C11 0.0232(10) 0.0239(11) 0.0228(10) 0.0026(8) 0.0036(8) 0.0011(9)
N12 0.0259(9) 0.0191(8) 0.0245(9) -0.0015(7) 0.0084(7) 0.0012(7)
N12A 0.0282(10) 0.0285(10) 0.0401(11) -0.0049(9) 0.0090(9) 0.0013(8)
O12A 0.0476(11) 0.0240(8) 0.0563(11) 0.0014(8) 0.0087(9) 0.0039(8)
O12B 0.0686(13) 0.0433(11) 0.0468(11) -0.0101(8) 0.0316(10) 0.0018(9)

_geom_special_details            
;
All esds (except the esd in the dihedral angle between two l.s. planes)
are estimated using the full covariance matrix.  The cell esds are taken
into account individually in the estimation of esds in distances, angles
and torsion angles; correlations between esds in cell parameters are only
used when they are defined by crystal symmetry.  An approximate (isotropic)
treatment of cell esds is used for estimating esds involving l.s. planes.
;

loop_
_geom_bond_atom_site_label_1
_geom_bond_atom_site_label_2
_geom_bond_distance
_geom_bond_site_symmetry_2
_geom_bond_publ_flag
C1 N2 1.456(3) . ?
C1 N12 1.460(3) . ?
C1 C7 1.591(3) . ?
N2 N2A 1.431(2) . ?
N2 C3 1.466(3) . ?
N2A O2A 1.207(3) . ?
N2A O2B 1.210(3) . ?
C3 N4 1.445(3) . ?
C3 C11 1.576(3) . ?
N4 N4A 1.385(2) . ?
N4 C5 1.439(3) . ?
N4A O4B 1.204(3) . ?
N4A O4A 1.216(3) . ?
C5 N6 1.469(3) . ?
C5 C9 1.574(3) . ?
N6 N6A 1.375(2) . ?
N6 C7 1.449(3) . ?
N6A O6A 1.214(2) . ?
N6A O6B 1.221(2) . ?
C7 N8 1.455(3) . ?
N8 N8A 1.380(2) . ?
N8 C9 1.479(3) . ?
N8A O8B 1.215(2) . ?
N8A O8A 1.215(2) . ?
C9 N10 1.442(3) . ?
N10 N10A 1.415(2) . ?
N10 C11 1.439(3) . ?
N10A O10B 1.207(3) . ?
N10A O10A 1.209(3) . ?
C11 N12 1.466(3) . ?
N12 N12A 1.421(2) . ?
N12A O12A 1.207(3) . ?
N12A O12B 1.208(3) . ?

loop_
_geom_angle_atom_site_label_1
_geom_angle_atom_site_label_2
_geom_angle_atom_site_label_3
_geom_angle
_geom_angle_site_symmetry_1
_geom_angle_site_symmetry_3
_geom_angle_publ_flag
N2 C1 N12 104.6(2) . . ?
N2 C1 C7 108.8(2) . . ?
N12 C1 C7 107.5(2) . . ?
N2A N2 C1 116.4(2) . . ?
N2A N2 C3 117.4(2) . . ?
C1 N2 C3 108.0(2) . . ?
O2A N2A O2B 127.7(2) . . ?
O2A N2A N2 116.7(2) . . ?
O2B N2A N2 115.5(2) . . ?
N4 C3 N2 108.8(2) . . ?
N4 C3 C11 109.8(2) . . ?
N2 C3 C11 104.2(2) . . ?
N4A N4 C5 120.6(2) . . ?
N4A N4 C3 121.5(2) . . ?
C5 N4 C3 117.9(2) . . ?
O4B N4A O4A 126.5(2) . . ?
O4B N4A N4 116.4(2) . . ?
O4A N4A N4 117.0(2) . . ?
N4 C5 N6 111.7(2) . . ?
N4 C5 C9 109.4(2) . . ?
N6 C5 C9 101.7(2) . . ?
N6A N6 C7 119.0(2) . . ?
N6A N6 C5 119.6(2) . . ?
C7 N6 C5 110.9(2) . . ?
O6A N6A O6B 126.9(2) . . ?
O6A N6A N6 116.2(2) . . ?
O6B N6A N6 116.9(2) . . ?
N6 C7 N8 95.92(15) . . ?
N6 C7 C1 113.0(2) . . ?
N8 C7 C1 112.8(2) . . ?
N8A N8 C7 117.2(2) . . ?
N8A N8 C9 120.0(2) . . ?
C7 N8 C9 110.6(2) . . ?
O8B N8A O8A 126.9(2) . . ?
O8B N8A N8 116.1(2) . . ?
O8A N8A N8 117.0(2) . . ?
N10 C9 N8 114.1(2) . . ?
N10 C9 C5 108.0(2) . . ?
N8 C9 C5 101.1(2) . . ?
N10A N10 C11 118.8(2) . . ?
N10A N10 C9 118.4(2) . . ?
C11 N10 C9 116.9(2) . . ?
O10B N10A O10A 127.5(2) . . ?
O10B N10A N10 116.1(2) . . ?
O10A N10A N10 116.3(2) . . ?
N10 C11 N12 111.8(2) . . ?
N10 C11 C3 107.6(2) . . ?
N12 C11 C3 104.7(2) . . ?
N12A N12 C1 116.0(2) . . ?
N12A N12 C11 117.8(2) . . ?
C1 N12 C11 107.7(2) . . ?
O12A N12A O12B 127.6(2) . . ?
O12A N12A N12 115.8(2) . . ?
O12B N12A N12 116.5(2) . . ?

_refine_diff_density_max         0.252
_refine_diff_density_min         -0.213
_refine_diff_density_rms         0.049


