####################################################################### 
# 
# This file contains crystal structure data downloaded from the 
# Cambridge Structural Database (CSD) hosted by the Cambridge 
# Crystallographic Data Centre (CCDC).
# 
# Full information about CCDC data access policies and citation 
# guidelines are available at http://www.ccdc.cam.ac.uk/access/V1 
# 
# Audit and citation data items may have been added by the CCDC. 
# Please retain this information to preserve the provenance of 
# this file and to allow appropriate attribution of the data. 
# 
#######################################################################

data_th04
_audit_block_doi                 10.5517/cc48q58
_database_code_depnum_ccdc_archive 'CCDC 127539'
_audit_update_record             
;
1999-06-18 deposited with the CCDC.	2022-01-06 downloaded from the CCDC.
;
_audit_creation_method           SHELXL
_chemical_name_systematic        
;
1,1-Diaminodinitroethylene
;
_chemical_name_common            'FOX-7 (in the explosives industry)'
_chemical_formula_moiety         ?
_chemical_formula_structural     ?
_chemical_formula_analytical     ?
_chemical_formula_sum            'C2 H4 N4 O4'
_chemical_formula_weight         148.09
_chemical_melting_point          ?
_chemical_compound_source        'Thiokol, Inc.; Provo, Utah, USA'

loop_
_atom_type_symbol
_atom_type_description
_atom_type_scat_dispersion_real
_atom_type_scat_dispersion_imag
_atom_type_scat_source
C C 0.0181 0.0091 'International Tables Vol C Tables 4.2.6.8 and 6.1.1.4'
H H 0.0000 0.0000 'International Tables Vol C Tables 4.2.6.8 and 6.1.1.4'
N N 0.0311 0.0180 'International Tables Vol C Tables 4.2.6.8 and 6.1.1.4'
O O 0.0492 0.0322 'International Tables Vol C Tables 4.2.6.8 and 6.1.1.4'

_symmetry_cell_setting           Monoclinic
_symmetry_space_group_name_H-M   P2(1)/n

loop_
_symmetry_equiv_pos_as_xyz
'x, y, z'
'-x+1/2, y+1/2, -z+1/2'
'-x, -y, -z'
'x-1/2, -y-1/2, z-1/2'

_cell_length_a                   6.9396(7)
_cell_length_b                   6.6374(10)
_cell_length_c                   11.3406(14)
_cell_angle_alpha                90.00
_cell_angle_beta                 90.611(9)
_cell_angle_gamma                90.00
_cell_volume                     522.33(11)
_cell_formula_units_Z            4
_cell_measurement_temperature    294(2)
_cell_measurement_reflns_used    39
_cell_measurement_theta_min      7.5
_cell_measurement_theta_max      49.6

_exptl_crystal_description       prism
_exptl_crystal_colour            clear_deep_yellow
_exptl_crystal_size_max          0.5
_exptl_crystal_size_mid          0.2
_exptl_crystal_size_min          0.1
_exptl_crystal_density_meas      ?
_exptl_crystal_density_diffrn    1.883
_exptl_crystal_density_method    ?
_exptl_crystal_F_000             304
_exptl_absorpt_coefficient_mu    1.601
_exptl_absorpt_correction_type   integration
_exptl_absorpt_correction_T_min  0.6221
_exptl_absorpt_correction_T_max  0.9152

_exptl_special_details           
;
?
;

_diffrn_ambient_temperature      294(2)
_diffrn_radiation_wavelength     1.54178
_diffrn_radiation_type           CuK\a
_diffrn_radiation_source         'fine-focus sealed tube'
_diffrn_radiation_monochromator  graphite
_diffrn_measurement_device       ?
_diffrn_measurement_method       '\w scans'
_diffrn_standards_number         3
_diffrn_standards_interval_count 97
_diffrn_standards_interval_time  ?
_diffrn_standards_decay_%        0.0
_diffrn_reflns_number            1340
_diffrn_reflns_av_R_equivalents  0.0190
_diffrn_reflns_av_sigmaI/netI    0.0220
_diffrn_reflns_limit_h_min       -7
_diffrn_reflns_limit_h_max       7
_diffrn_reflns_limit_k_min       -7
_diffrn_reflns_limit_k_max       5
_diffrn_reflns_limit_l_min       0
_diffrn_reflns_limit_l_max       12
_diffrn_reflns_theta_min         7.45
_diffrn_reflns_theta_max         56.99
_reflns_number_total             708
_reflns_number_observed          670
_reflns_observed_criterion       >2sigma(I)

_computing_data_collection       'Bruker XSCANS'
_computing_cell_refinement       'Bruker XSCANS'
_computing_data_reduction        'Bruker SHELXTL'
_computing_structure_solution    'SHELXS-86 (Sheldrick, 1990)'
_computing_structure_refinement  'SHELXL-93 (Sheldrick, 1993)'
_computing_molecular_graphics    'Bruker SHELXTL'
_computing_publication_material  'Bruker SHELXTL'

_refine_special_details          
;
Refinement on F^2^ for ALL reflections except for 0 with very negative F^2^
or flagged by the user for potential systematic errors.  Weighted R-factors
wR and all goodnesses of fit S are based on F^2^, conventional R-factors R
are based on F, with F set to zero for negative F^2^. The observed criterion
of F^2^ > 2sigma(F^2^) is used only for calculating _R_factor_obs etc. and is
not relevant to the choice of reflections for refinement.  R-factors based
on F^2^ are statistically about twice as large as those based on F, and R-
factors based on ALL data will be even larger.
;

_refine_ls_structure_factor_coef Fsqd
_refine_ls_matrix_type           full
_refine_ls_weighting_scheme      
'calc w==1/[\s^2^(Fo^2^)+(0.0508P)^2^+0.1072P] where P==(Fo^2^+2Fc^2^)/3'
_atom_sites_solution_primary     direct
_atom_sites_solution_secondary   difmap
_atom_sites_solution_hydrogens   geom
_refine_ls_hydrogen_treatment    ?
_refine_ls_extinction_method     SHELXL
_refine_ls_extinction_coef       0.0072(14)
_refine_ls_extinction_expression Fc^*^==kFc[1+0.001xFc^2^\l^3^/sin(2\q)]^-1/4^
_refine_ls_number_reflns         708
_refine_ls_number_parameters     108
_refine_ls_number_restraints     0
_refine_ls_R_factor_all          0.0322
_refine_ls_R_factor_obs          0.0302
_refine_ls_wR_factor_all         0.0843
_refine_ls_wR_factor_obs         0.0821
_refine_ls_goodness_of_fit_all   1.109
_refine_ls_goodness_of_fit_obs   1.117
_refine_ls_restrained_S_all      1.109
_refine_ls_restrained_S_obs      1.117
_refine_ls_shift/esd_max         0.016
_refine_ls_shift/esd_mean        0.002

loop_
_atom_site_label
_atom_site_type_symbol
_atom_site_fract_x
_atom_site_fract_y
_atom_site_fract_z
_atom_site_U_iso_or_equiv
_atom_site_thermal_displace_type
_atom_site_occupancy
_atom_site_calc_flag
_atom_site_refinement_flags
_atom_site_disorder_group
C1 C -0.3121(2) 0.2409(2) 0.52583(14) 0.0243(5) Uani 1 d . .
N1A N -0.5010(2) 0.2539(2) 0.51047(15) 0.0307(4) Uani 1 d . .
H1AA H -0.5489(32) 0.2969(32) 0.4487(21) 0.046(6) Uiso 1 d . .
H1AS H -0.5858(31) 0.2057(28) 0.5646(19) 0.036(5) Uiso 1 d . .
N1B N -0.2009(3) 0.2989(3) 0.43957(14) 0.0361(4) Uani 1 d . .
H1BS H -0.0772(39) 0.2988(33) 0.4484(20) 0.054(7) Uiso 1 d . .
H1BA H -0.2509(30) 0.3398(31) 0.3745(19) 0.043(6) Uiso 1 d . .
C2 C -0.2319(2) 0.1716(2) 0.63684(13) 0.0241(4) Uani 1 d . .
N2A N -0.3543(2) 0.1313(2) 0.73344(11) 0.0255(4) Uani 1 d . .
O2AA O -0.3021(2) 0.1678(2) 0.83533(9) 0.0393(4) Uani 1 d . .
O2AS O -0.51693(15) 0.0630(2) 0.71259(10) 0.0369(4) Uani 1 d . .
N2B N -0.0343(2) 0.1468(2) 0.65820(12) 0.0271(4) Uani 1 d . .
O2BA O 0.0236(2) 0.0630(2) 0.74957(10) 0.0357(4) Uani 1 d . .
O2BS O 0.0810(2) 0.2033(2) 0.58138(11) 0.0426(4) Uani 1 d . .

loop_
_atom_site_aniso_label
_atom_site_aniso_U_11
_atom_site_aniso_U_22
_atom_site_aniso_U_33
_atom_site_aniso_U_23
_atom_site_aniso_U_13
_atom_site_aniso_U_12
C1 0.0252(10) 0.0252(9) 0.0224(9) -0.0026(6) -0.0013(7) 0.0013(6)
N1A 0.0247(9) 0.0427(10) 0.0245(8) 0.0047(7) -0.0058(7) 0.0009(6)
N1B 0.0288(9) 0.0566(10) 0.0230(8) 0.0085(7) 0.0017(7) 0.0026(7)
C2 0.0200(8) 0.0314(10) 0.0209(9) 0.0000(7) -0.0003(6) -0.0004(7)
N2A 0.0222(8) 0.0322(8) 0.0220(7) 0.0014(6) -0.0016(6) 0.0004(6)
O2AA 0.0318(8) 0.0686(10) 0.0174(7) -0.0032(6) -0.0030(5) -0.0028(6)
O2AS 0.0244(7) 0.0565(9) 0.0298(7) 0.0022(6) -0.0008(5) -0.0112(6)
N2B 0.0226(8) 0.0346(8) 0.0242(8) -0.0016(6) -0.0021(6) 0.0006(6)
O2BA 0.0278(7) 0.0513(8) 0.0278(7) 0.0064(6) -0.0088(5) 0.0061(5)
O2BS 0.0211(7) 0.0701(10) 0.0367(8) 0.0114(7) 0.0055(5) -0.0019(6)

_geom_special_details            
;
All esds (except the esd in the dihedral angle between two l.s. planes)
are estimated using the full covariance matrix.  The cell esds are taken
into account individually in the estimation of esds in distances, angles
and torsion angles; correlations between esds in cell parameters are only
used when they are defined by crystal symmetry.  An approximate (isotropic)
treatment of cell esds is used for estimating esds involving l.s. planes.
;

loop_
_geom_bond_atom_site_label_1
_geom_bond_atom_site_label_2
_geom_bond_distance
_geom_bond_site_symmetry_2
_geom_bond_publ_flag
C1 N1B 1.310(2) . ?
C1 N1A 1.324(2) . ?
C1 C2 1.446(2) . ?
C2 N2B 1.400(2) . ?
C2 N2A 1.418(2) . ?
N2A O2AA 1.231(2) . ?
N2A O2AS 1.237(2) . ?
N2B O2BA 1.239(2) . ?
N2B O2BS 1.247(2) . ?

loop_
_geom_angle_atom_site_label_1
_geom_angle_atom_site_label_2
_geom_angle_atom_site_label_3
_geom_angle
_geom_angle_site_symmetry_1
_geom_angle_site_symmetry_3
_geom_angle_publ_flag
N1B C1 N1A 118.2(2) . . ?
N1B C1 C2 121.31(15) . . ?
N1A C1 C2 120.43(15) . . ?
N2B C2 N2A 115.94(13) . . ?
N2B C2 C1 123.71(14) . . ?
N2A C2 C1 120.31(13) . . ?
O2AA N2A O2AS 120.67(12) . . ?
O2AA N2A C2 121.02(13) . . ?
O2AS N2A C2 118.28(13) . . ?
O2BA N2B O2BS 120.97(13) . . ?
O2BA N2B C2 120.38(13) . . ?
O2BS N2B C2 118.58(13) . . ?

loop_
_geom_torsion_atom_site_label_1
_geom_torsion_atom_site_label_2
_geom_torsion_atom_site_label_3
_geom_torsion_atom_site_label_4
_geom_torsion
_geom_torsion_site_symmetry_1
_geom_torsion_site_symmetry_2
_geom_torsion_site_symmetry_3
_geom_torsion_site_symmetry_4
_geom_torsion_publ_flag
N1B C1 C2 N2B -4.9(3) . . . . ?
N1A C1 C2 N2B 177.53(14) . . . . ?
N1B C1 C2 N2A 172.82(15) . . . . ?
N1A C1 C2 N2A -4.8(2) . . . . ?
N2B C2 N2A O2AA 33.5(2) . . . . ?
C1 C2 N2A O2AA -144.3(2) . . . . ?
N2B C2 N2A O2AS -148.19(14) . . . . ?
C1 C2 N2A O2AS 34.0(2) . . . . ?
N2A C2 N2B O2BA 11.4(2) . . . . ?
C1 C2 N2B O2BA -170.79(14) . . . . ?
N2A C2 N2B O2BS -171.40(14) . . . . ?
C1 C2 N2B O2BS 6.4(2) . . . . ?

_refine_diff_density_max         0.160
_refine_diff_density_min         -0.241
_refine_diff_density_rms         0.043

loop_
_exptl_crystal_face_index_h
_exptl_crystal_face_index_k
_exptl_crystal_face_index_l
_exptl_crystal_face_perp_dist
1.00 0.00 1.00 0.0300
-1.00 0.00 -1.00 0.0300
1.00 0.00 -1.00 0.0750
-1.00 0.00 1.00 0.0750
0.00 1.00 0.00 0.3000
0.00 -1.00 0.00 0.3000
1.00 1.00 -1.00 0.2050
-1.00 -1.00 1.00 0.2250


